sat
(
  (define-fun noSomeM1S () (_ BitVec 11)
    #b00000000000)
  (define-fun otl195 () (_ BitVec 11)
    #b11111111111)
  (define-fun w1M3O () (_ BitVec 11)
    #b11111111111)
  (define-fun otl24 () (_ BitVec 11)
    #b11111111100)
  (define-fun otl87 () (_ BitVec 11)
    #b11111111111)
  (define-fun otl187 () (_ BitVec 11)
    #b11111000000)
  (define-fun M4O () (_ BitVec 11)
    #b00000011100)
  (define-fun w1M5O () (_ BitVec 11)
    #b11111111111)
  (define-fun i_loop () (_ BitVec 11)
    #b00000000111)
  (define-fun otl8 () (_ BitVec 11)
    #b11111111110)
  (define-fun M5S () (_ BitVec 11)
    #b00000010000)
  (define-fun otl190 () (_ BitVec 11)
    #b11111111000)
  (define-fun M6O () (_ BitVec 11)
    #b00000100000)
  (define-fun w1M6O () (_ BitVec 11)
    #b11111111111)
  (define-fun M7R () (_ BitVec 11)
    #b11111000000)
  (define-fun otl192 () (_ BitVec 11)
    #b11111111110)
  (define-fun w2M7O () (_ BitVec 11)
    #b11111111111)
  (define-fun noSomeM3S () (_ BitVec 11)
    #b00000000000)
  (define-fun M6S () (_ BitVec 11)
    #b00000100000)
  (define-fun noSomeM7S () (_ BitVec 11)
    #b00000000000)
  (define-fun otl2 () (_ BitVec 11)
    #b11111111110)
  (define-fun M5R () (_ BitVec 11)
    #b11111110000)
  (define-fun otl18 () (_ BitVec 11)
    #b11111111100)
  (define-fun M2S () (_ BitVec 11)
    #b00000001000)
  (define-fun M1S () (_ BitVec 11)
    #b00000000010)
  (define-fun w1noSomeM1S () (_ BitVec 11)
    #b11111111011)
  (define-fun noSomeM4S () (_ BitVec 11)
    #b00000000000)
  (define-fun otl40 () (_ BitVec 11)
    #b11111111000)
  (define-fun M7O () (_ BitVec 11)
    #b11111000000)
  (define-fun w1M4O () (_ BitVec 11)
    #b11111111111)
  (define-fun M4S () (_ BitVec 11)
    #b00000000100)
  (define-fun otl81 () (_ BitVec 11)
    #b11111111111)
  (define-fun M3S () (_ BitVec 11)
    #b00000000001)
  (define-fun w1noSomeM4S () (_ BitVec 11)
    #b11110001111)
  (define-fun setup () (_ BitVec 11)
    #b00001111111)
  (define-fun otl50 () (_ BitVec 11)
    #b11111110000)
  (define-fun otl79 () (_ BitVec 11)
    #b00000000001)
  (define-fun M2R () (_ BitVec 11)
    #b11111111000)
  (define-fun otl65 () (_ BitVec 11)
    #b11111100000)
  (define-fun otl191 () (_ BitVec 11)
    #b11111111100)
  (define-fun otl63 () (_ BitVec 11)
    #b00000111111)
  (define-fun w1noSomeM6S () (_ BitVec 11)
    #b11111111011)
  (define-fun noSomeM2S () (_ BitVec 11)
    #b00000000000)
  (define-fun otl48 () (_ BitVec 11)
    #b00000011111)
  (define-fun otl56 () (_ BitVec 11)
    #b11111110000)
  (define-fun w1noSomeM7S () (_ BitVec 11)
    #b11111111111)
  (define-fun w1M7O () (_ BitVec 11)
    #b11111111111)
  (define-fun M2O () (_ BitVec 11)
    #b00000001000)
  (define-fun noSomeM6S () (_ BitVec 11)
    #b00000000000)
  (define-fun w1noSomeM5S () (_ BitVec 11)
    #b11111111111)
  (define-fun otl71 () (_ BitVec 11)
    #b11111100000)
  (define-fun otl193 () (_ BitVec 11)
    #b11111111111)
  (define-fun w1noSomeM2S () (_ BitVec 11)
    #b10110111011)
  (define-fun w1M1O () (_ BitVec 11)
    #b11111111111)
  (define-fun otl94 () (_ BitVec 11)
    #b00001111111)
  (define-fun noSomeM5S () (_ BitVec 11)
    #b00000000000)
  (define-fun M7S () (_ BitVec 11)
    #b00001000000)
  (define-fun M5O () (_ BitVec 11)
    #b00000010000)
  (define-fun M4R () (_ BitVec 11)
    #b11111111100)
  (define-fun otl194 () (_ BitVec 11)
    #b11111111111)
  (define-fun otl0 () (_ BitVec 11)
    #b00000000011)
  (define-fun otl34 () (_ BitVec 11)
    #b11111111000)
  (define-fun M1R () (_ BitVec 11)
    #b11111111110)
  (define-fun w1M2O () (_ BitVec 11)
    #b11111111111)
  (define-fun otl188 () (_ BitVec 11)
    #b11111100000)
  (define-fun otl96 () (_ BitVec 11)
    #b11111000000)
  (define-fun otl102 () (_ BitVec 11)
    #b11111000000)
  (define-fun M6R () (_ BitVec 11)
    #b11111100000)
  (define-fun M8S () (_ BitVec 11)
    #b11010000000)
  (define-fun otl189 () (_ BitVec 11)
    #b11111110000)
  (define-fun otl16 () (_ BitVec 11)
    #b00000000111)
  (define-fun otl184 () (_ BitVec 11)
    #b00001111111)
  (define-fun M3R () (_ BitVec 11)
    #b11111111111)
  (define-fun M8R () (_ BitVec 11)
    #b00000000000)
  (define-fun M1O () (_ BitVec 11)
    #b00000000010)
  (define-fun M3O () (_ BitVec 11)
    #b00000111111)
  (define-fun w1noSomeM3S () (_ BitVec 11)
    #b11111110011)
  (define-fun otl32 () (_ BitVec 11)
    #b00000001111)
  (define-fun otl186 () (_ BitVec 11)
    #b10110000011)
  (define-fun otl169 () (_ BitVec 11)
    #b11111111111)
  (define-fun otl45 () (_ BitVec 11)
    #b11111111111)
  (define-fun otl156 () (_ BitVec 11)
    #b00000000000)
  (define-fun otl106 () (_ BitVec 11)
    #b11111111111)
  (define-fun otl26 () (_ BitVec 11)
    #b00000011111)
  (define-fun otl43 () (_ BitVec 11)
    #b00000001000)
  (define-fun otl49 () (_ BitVec 11)
    #b11111100000)
  (define-fun otl172 () (_ BitVec 11)
    #b00000000000)
  (define-fun otl150 () (_ BitVec 11)
    #b00000000000)
  (define-fun otl1 () (_ BitVec 11)
    #b11111111100)
  (define-fun otl145 () (_ BitVec 11)
    #b11111111111)
  (define-fun otl121 () (_ BitVec 11)
    #b11111100000)
  (define-fun otl51 () (_ BitVec 11)
    #b00001110000)
  (define-fun otl5 () (_ BitVec 11)
    #b11111111111)
  (define-fun otl91 () (_ BitVec 11)
    #b11111111111)
  (define-fun otl107 () (_ BitVec 11)
    #b11111111111)
  (define-fun otl95 () (_ BitVec 11)
    #b11110000000)
  (define-fun otl88 () (_ BitVec 11)
    #b11111111111)
  (define-fun otl78 () (_ BitVec 11)
    #b11111111011)
  (define-fun otl46 () (_ BitVec 11)
    #b11111111111)
  (define-fun otl52 () (_ BitVec 11)
    #b11111111111)
  (define-fun otl36 () (_ BitVec 11)
    #b11111111111)
  (define-fun otl75 () (_ BitVec 11)
    #b11111111111)
  (define-fun otl109 () (_ BitVec 11)
    #b11111000000)
  (define-fun otl47 () (_ BitVec 11)
    #b10110111011)
  (define-fun otl84 () (_ BitVec 11)
    #b11111111111)
  (define-fun otl10 () (_ BitVec 11)
    #b00000000011)
  (define-fun otl119 () (_ BitVec 11)
    #b11111111111)
  (define-fun otl112 () (_ BitVec 11)
    #b11111111111)
  (define-fun otl160 () (_ BitVec 11)
    #b00000000000)
  (define-fun otl182 () (_ BitVec 11)
    #b11111111111)
  (define-fun otl149 () (_ BitVec 11)
    #b11111111111)
  (define-fun otl132 () (_ BitVec 11)
    #b00000000000)
  (define-fun otl151 () (_ BitVec 11)
    #b11111111111)
  (define-fun otl144 () (_ BitVec 11)
    #b00000000000)
  (define-fun otl28 () (_ BitVec 11)
    #b11111111111)
  (define-fun otl76 () (_ BitVec 11)
    #b11111111111)
  (define-fun otl175 () (_ BitVec 11)
    #b11111111111)
  (define-fun otl134 () (_ BitVec 11)
    #b00000000000)
  (define-fun otl125 () (_ BitVec 11)
    #b11111111111)
  (define-fun otl120 () (_ BitVec 11)
    #b11111111111)
  (define-fun otl174 () (_ BitVec 11)
    #b00000000000)
  (define-fun otl181 () (_ BitVec 11)
    #b11111111111)
  (define-fun otl117 () (_ BitVec 11)
    #b11111111111)
  (define-fun otl142 () (_ BitVec 11)
    #b00000000000)
  (define-fun otl133 () (_ BitVec 11)
    #b11111111111)
  (define-fun otl33 () (_ BitVec 11)
    #b11111110000)
  (define-fun otl66 () (_ BitVec 11)
    #b00001100000)
  (define-fun otl103 () (_ BitVec 11)
    #b11111111111)
  (define-fun costHAvg () Real
    18.0)
  (define-fun otl61 () (_ BitVec 11)
    #b11111111111)
  (define-fun otl124 () (_ BitVec 11)
    #b11111111111)
  (define-fun otl4 () (_ BitVec 11)
    #b11111111111)
  (define-fun otl77 () (_ BitVec 11)
    #b11111111111)
  (define-fun otl68 () (_ BitVec 11)
    #b11111111111)
  (define-fun otl123 () (_ BitVec 11)
    #b11111111111)
  (define-fun otl57 () (_ BitVec 11)
    #b11111111111)
  (define-fun otl171 () (_ BitVec 11)
    #b11111111111)
  (define-fun otl37 () (_ BitVec 11)
    #b11111111111)
  (define-fun otl15 () (_ BitVec 11)
    #b11111111011)
  (define-fun otl129 () (_ BitVec 11)
    #b11111111111)
  (define-fun otl74 () (_ BitVec 11)
    #b00000100000)
  (define-fun otl99 () (_ BitVec 11)
    #b11111111111)
  (define-fun costHSum () Real
    54.0)
  (define-fun otl93 () (_ BitVec 11)
    #b11111110011)
  (define-fun otl183 () (_ BitVec 11)
    #b11111111111)
  (define-fun otl127 () (_ BitVec 11)
    #b11111111111)
  (define-fun otl80 () (_ BitVec 11)
    #b11111111110)
  (define-fun otl64 () (_ BitVec 11)
    #b11111000000)
  (define-fun otl178 () (_ BitVec 11)
    #b00000000000)
  (define-fun otl6 () (_ BitVec 11)
    #b00000000000)
  (define-fun otl85 () (_ BitVec 11)
    #b00000000000)
  (define-fun otl126 () (_ BitVec 11)
    #b00000000000)
  (define-fun otl164 () (_ BitVec 11)
    #b00000000000)
  (define-fun otl154 () (_ BitVec 11)
    #b00000000000)
  (define-fun otl138 () (_ BitVec 11)
    #b00000000000)
  (define-fun otl118 () (_ BitVec 11)
    #b11111110000)
  (define-fun otl179 () (_ BitVec 11)
    #b11111111111)
  (define-fun otl155 () (_ BitVec 11)
    #b11111111111)
  (define-fun otl111 () (_ BitVec 11)
    #b11111111111)
  (define-fun otl9 () (_ BitVec 11)
    #b11111111111)
  (define-fun otl136 () (_ BitVec 11)
    #b00000000000)
  (define-fun otl140 () (_ BitVec 11)
    #b00000000000)
  (define-fun otl131 () (_ BitVec 11)
    #b11111111111)
  (define-fun otl90 () (_ BitVec 11)
    #b11111111111)
  (define-fun otl14 () (_ BitVec 11)
    #b11111111111)
  (define-fun otl17 () (_ BitVec 11)
    #b11111111000)
  (define-fun otl13 () (_ BitVec 11)
    #b11111111111)
  (define-fun otl82 () (_ BitVec 11)
    #b00001111111)
  (define-fun otl97 () (_ BitVec 11)
    #b00001000000)
  (define-fun otl30 () (_ BitVec 11)
    #b11111111111)
  (define-fun otl167 () (_ BitVec 11)
    #b11111111111)
  (define-fun otl148 () (_ BitVec 11)
    #b00000000000)
  (define-fun otl12 () (_ BitVec 11)
    #b11111111111)
  (define-fun otl62 () (_ BitVec 11)
    #b11111111111)
  (define-fun otl162 () (_ BitVec 11)
    #b00000000000)
  (define-fun otl122 () (_ BitVec 11)
    #b11111111111)
  (define-fun costLSum () Real
    1988.0)
  (define-fun otl69 () (_ BitVec 11)
    #b00000000000)
  (define-fun otl135 () (_ BitVec 11)
    #b11111111111)
  (define-fun otl161 () (_ BitVec 11)
    #b11111111111)
  (define-fun otl27 () (_ BitVec 11)
    #b00000011100)
  (define-fun otl42 () (_ BitVec 11)
    #b00000001111)
  (define-fun otl130 () (_ BitVec 11)
    #b00000000000)
  (define-fun otl83 () (_ BitVec 11)
    #b11111111111)
  (define-fun otl53 () (_ BitVec 11)
    #b11111111111)
  (define-fun otl128 () (_ BitVec 11)
    #b00000000000)
  (define-fun otl3 () (_ BitVec 11)
    #b00001111110)
  (define-fun otl116 () (_ BitVec 11)
    #b11111111111)
  (define-fun otl173 () (_ BitVec 11)
    #b11111111111)
  (define-fun otl166 () (_ BitVec 11)
    #b00000000000)
  (define-fun otl157 () (_ BitVec 11)
    #b11111111111)
  (define-fun otl29 () (_ BitVec 11)
    #b11111111111)
  (define-fun otl89 () (_ BitVec 11)
    #b00000111111)
  (define-fun otl86 () (_ BitVec 11)
    #b11111111111)
  (define-fun otl19 () (_ BitVec 11)
    #b00001111100)
  (define-fun otl22 () (_ BitVec 11)
    #b00000000000)
  (define-fun otl31 () (_ BitVec 11)
    #b11110001111)
  (define-fun otl147 () (_ BitVec 11)
    #b11111111111)
  (define-fun otl170 () (_ BitVec 11)
    #b00000000000)
  (define-fun otl163 () (_ BitVec 11)
    #b11111111111)
  (define-fun otl143 () (_ BitVec 11)
    #b11111111111)
  (define-fun otl115 () (_ BitVec 11)
    #b11111111111)
  (define-fun otl55 () (_ BitVec 11)
    #b11111111111)
  (define-fun otl39 () (_ BitVec 11)
    #b11111111111)
  (define-fun otl114 () (_ BitVec 11)
    #b11111111111)
  (define-fun otl20 () (_ BitVec 11)
    #b11111111111)
  (define-fun otl100 () (_ BitVec 11)
    #b00000000000)
  (define-fun otl159 () (_ BitVec 11)
    #b11111111111)
  (define-fun otl105 () (_ BitVec 11)
    #b11111111111)
  (define-fun otl35 () (_ BitVec 11)
    #b00001111000)
  (define-fun in_loop () (_ BitVec 11)
    #b11110000000)
  (define-fun otl137 () (_ BitVec 11)
    #b11111111111)
  (define-fun otl41 () (_ BitVec 11)
    #b11111111111)
  (define-fun otl44 () (_ BitVec 11)
    #b11111111111)
  (define-fun otl185 () (_ BitVec 11)
    #b11110000000)
  (define-fun otl168 () (_ BitVec 11)
    #b00000000000)
  (define-fun otl153 () (_ BitVec 11)
    #b11111111111)
  (define-fun otl98 () (_ BitVec 11)
    #b11111111111)
  (define-fun otl38 () (_ BitVec 11)
    #b00000000000)
  (define-fun otl177 () (_ BitVec 11)
    #b11111111111)
  (define-fun otl146 () (_ BitVec 11)
    #b00000000000)
  (define-fun otl11 () (_ BitVec 11)
    #b00000000010)
  (define-fun otl54 () (_ BitVec 11)
    #b00000000000)
  (define-fun otl7 () (_ BitVec 11)
    #b11111111111)
  (define-fun otl152 () (_ BitVec 11)
    #b00000000000)
  (define-fun otl110 () (_ BitVec 11)
    #b11111111111)
  (define-fun otl180 () (_ BitVec 11)
    #b00000000000)
  (define-fun otl104 () (_ BitVec 11)
    #b11111111111)
  (define-fun otl92 () (_ BitVec 11)
    #b11111111111)
  (define-fun otl176 () (_ BitVec 11)
    #b00000000000)
  (define-fun otl139 () (_ BitVec 11)
    #b11111111111)
  (define-fun otl101 () (_ BitVec 11)
    #b11111111111)
  (define-fun otl113 () (_ BitVec 11)
    #b11111111111)
  (define-fun otl158 () (_ BitVec 11)
    #b00000000000)
  (define-fun otl23 () (_ BitVec 11)
    #b11111111111)
  (define-fun otl73 () (_ BitVec 11)
    #b00000111111)
  (define-fun otl59 () (_ BitVec 11)
    #b11111111111)
  (define-fun otl70 () (_ BitVec 11)
    #b11111111111)
  (define-fun otl165 () (_ BitVec 11)
    #b11111111111)
  (define-fun otl58 () (_ BitVec 11)
    #b00000010000)
  (define-fun otl108 () (_ BitVec 11)
    #b11111111111)
  (define-fun otl67 () (_ BitVec 11)
    #b11111111111)
  (define-fun otl21 () (_ BitVec 11)
    #b11111111111)
  (define-fun otl25 () (_ BitVec 11)
    #b11111111111)
  (define-fun otl141 () (_ BitVec 11)
    #b11111111111)
  (define-fun otl72 () (_ BitVec 11)
    #b11111111111)
  (define-fun otl60 () (_ BitVec 11)
    #b11111111111)
)
(objectives
 (costHAvg 18)
 (costLSum 1988)
)
(:max-memory              152.32
 :maxsat-cores            110
 :memory                  150.44
 :num-allocs              12908961906.00
 :rlimit-count            20712158
 :sat-backjumps           1947
 :sat-conflicts           2057
 :sat-decisions           90636
 :sat-del-clause          9852
 :sat-elim-clauses        7613
 :sat-elim-literals       22871
 :sat-minimized-lits      4953
 :sat-mk-clause-2ary      48473
 :sat-mk-clause-nary      19706
 :sat-mk-var              9555
 :sat-probing-assigned    140
 :sat-propagations-2ary   1936900
 :sat-propagations-nary   1079671
 :sat-restarts            11
 :sat-scc-elim-binary     24
 :sat-scc-elim-vars       1756
 :sat-subs-resolution     1017
 :sat-subs-resolution-dyn 549
 :sat-subsumed            241
 :sat-units               4934
 :solve-eqs-elim-vars     169
 :solve-eqs-steps         2240
 :time                    10.24
 :total-time              10.36)
